robust/generate/spp_dkp_Lefebvre_et_al_2026/src/shortest_path_9_10.kp
52
284

[4.03 0.13 1.03 3.03 0.48 3.04 0.26 4.7 4.8 2.55 3.12 3.74 3.75 2.05 3.76 2.07 4.53 3.34 1.8 4.21 1.86 0.46 1.59 2.03 3.63 3.22 0.99 3.96 3.85 1.93 2.5 3.9 2.18 3.64 0.39 2.39 2.13 1.2 4.22 0.1 2.21 0.23 2.44 4.21 1.64 4.41 0.6 0.77 3.86 3.26 3.53 2.64 2.31 4.41 1.83 2.58 3.4 2.08]

[25 39 77 60 15 85 72 89 69 23 51 18 42 11 37 9 22 92 15 52 97 96 64 56 69 68 89 91 66 60 90 25 30 83 57 83 66 56 59 91 50 75 17 16 21 65 32 1 58 58 57 92 75 1 1 65 71 75]
