robust/generate/spp_dkp_Lefebvre_et_al_2026/src/shortest_path_9_10.lp
\ Model sp_9_10
\ LP format - for model browsing. Use MPS format to capture full model detail.
\ Signature: 0x5b6ef6aeab80ea12
Minimize
  49.09 y[0,2] + 18.11 y[0,3] + 22.02 y[0,4] + 24.76 y[0,5] + 50.99 y[0,6]
   + 46.39 y[0,7] + 35.85 y[1,2] + 58 y[1,5] + 48.84 y[1,6] + 66.1 y[1,7]
   + 49.09 y[2,0] + 35.85 y[2,1] + 43.93 y[2,3] + 51.62 y[2,4]
   + 25.63 y[2,5] + 19.24 y[2,6] + 50.7 y[2,7] + 61.1 y[2,8] + 18.11 y[3,0]
   + 43.93 y[3,2] + 38.48 y[3,4] + 19 y[3,5] + 52.61 y[3,6] + 28.28 y[3,7]
   + 22.02 y[4,0] + 51.62 y[4,2] + 38.48 y[4,3] + 35.13 y[4,5] + 45 y[4,6]
   + 66.1 y[4,7] + 50.7 y[4,8] + 24.76 y[5,0] + 58 y[5,1] + 25.63 y[5,2]
   + 19 y[5,3] + 35.13 y[5,4] + 33.96 y[5,6] + 36.24 y[5,7] + 66.48 y[5,8]
   + 50.99 y[6,0] + 48.84 y[6,1] + 19.24 y[6,2] + 52.61 y[6,3] + 45 y[6,4]
   + 33.96 y[6,5] + 66.57 y[6,7] + 42.06 y[6,8] + 46.39 y[7,0]
   + 66.1 y[7,1] + 50.7 y[7,2] + 28.28 y[7,3] + 66.1 y[7,4] + 36.24 y[7,5]
   + 66.57 y[7,6] + 61.1 y[8,2] + 50.7 y[8,4] + 66.48 y[8,5] + 42.06 y[8,6]
   + 4.909 r[0,2] + 1.811 r[0,3] + 2.202 r[0,4] + 2.476 r[0,5]
   + 5.099 r[0,6] + 4.639 r[0,7] + 3.585 r[1,2] + 5.8 r[1,5] + 4.884 r[1,6]
   + 6.61 r[1,7] + 4.909 r[2,0] + 3.585 r[2,1] + 4.393 r[2,3]
   + 5.162 r[2,4] + 2.563 r[2,5] + 1.924 r[2,6] + 5.07 r[2,7] + 6.11 r[2,8]
   + 1.811 r[3,0] + 4.393 r[3,2] + 3.848 r[3,4] + 1.9 r[3,5] + 5.261 r[3,6]
   + 2.828 r[3,7] + 2.202 r[4,0] + 5.162 r[4,2] + 3.848 r[4,3]
   + 3.513 r[4,5] + 4.5 r[4,6] + 6.61 r[4,7] + 5.07 r[4,8] + 2.476 r[5,0]
   + 5.8 r[5,1] + 2.563 r[5,2] + 1.9 r[5,3] + 3.513 r[5,4] + 3.396 r[5,6]
   + 3.624 r[5,7] + 6.648 r[5,8] + 5.099 r[6,0] + 4.884 r[6,1]
   + 1.924 r[6,2] + 5.261 r[6,3] + 4.5 r[6,4] + 3.396 r[6,5] + 6.657 r[6,7]
   + 4.206 r[6,8] + 4.639 r[7,0] + 6.61 r[7,1] + 5.07 r[7,2] + 2.828 r[7,3]
   + 6.61 r[7,4] + 3.624 r[7,5] + 6.657 r[7,6] + 6.11 r[8,2] + 5.07 r[8,4]
   + 6.648 r[8,5] + 4.206 r[8,6]
Subject To
 flow_cons_inner_nodes[0]: - y[0,2] - y[0,3] - y[0,4] - y[0,5] - y[0,6]
   - y[0,7] + y[2,0] + y[3,0] + y[4,0] + y[5,0] + y[6,0] + y[7,0] = 0
 flow_cons_inner_nodes[1]: - y[1,2] - y[1,5] - y[1,6] - y[1,7] + y[2,1]
   + y[5,1] + y[6,1] + y[7,1] = 0
 flow_cons_inner_nodes[2]: y[0,2] + y[1,2] - y[2,0] - y[2,1] - y[2,3]
   - y[2,4] - y[2,5] - y[2,6] - y[2,7] - y[2,8] + y[3,2] + y[4,2] + y[5,2]
   + y[6,2] + y[7,2] + y[8,2] = 0
 flow_cons_inner_nodes[3]: y[0,3] + y[2,3] - y[3,0] - y[3,2] - y[3,4]
   - y[3,5] - y[3,6] - y[3,7] + y[4,3] + y[5,3] + y[6,3] + y[7,3] = 0
 flow_cons_inner_nodes[4]: y[0,4] + y[2,4] + y[3,4] - y[4,0] - y[4,2]
   - y[4,3] - y[4,5] - y[4,6] - y[4,7] - y[4,8] + y[5,4] + y[6,4] + y[7,4]
   + y[8,4] = 0
 flow_cons_inner_nodes[5]: y[0,5] + y[1,5] + y[2,5] + y[3,5] + y[4,5]
   - y[5,0] - y[5,1] - y[5,2] - y[5,3] - y[5,4] - y[5,6] - y[5,7] - y[5,8]
   + y[6,5] + y[7,5] + y[8,5] = 0
 flow_cons_inner_nodes[6]: y[0,6] + y[1,6] + y[2,6] + y[3,6] + y[4,6]
   + y[5,6] - y[6,0] - y[6,1] - y[6,2] - y[6,3] - y[6,4] - y[6,5] - y[6,7]
   - y[6,8] + y[7,6] + y[8,6] = 0
 flow_cons_source: - y[0,7] - y[1,7] - y[2,7] - y[3,7] - y[4,7] - y[5,7]
   - y[6,7] + y[7,0] + y[7,1] + y[7,2] + y[7,3] + y[7,4] + y[7,5] + y[7,6]
   = 1
 flow_cons_target: y[2,8] + y[4,8] + y[5,8] + y[6,8] - y[8,2] - y[8,4]
   - y[8,5] - y[8,6] = 1
 primal_lower: - 4.03 y[0,2] - 0.13 y[0,3] - 1.03 y[0,4] - 3.03 y[0,5]
   - 0.48 y[0,6] - 3.04 y[0,7] - 0.26 y[1,2] - 4.7 y[1,5] - 4.8 y[1,6]
   - 2.55 y[1,7] - 3.12 y[2,0] - 3.74 y[2,1] - 3.75 y[2,3] - 2.05 y[2,4]
   - 3.76 y[2,5] - 2.07 y[2,6] - 4.53 y[2,7] - 3.34 y[2,8] - 1.8 y[3,0]
   - 4.21 y[3,2] - 1.86 y[3,4] - 0.46 y[3,5] - 1.59 y[3,6] - 2.03 y[3,7]
   - 3.63 y[4,0] - 3.22 y[4,2] - 0.99 y[4,3] - 3.96 y[4,5] - 3.85 y[4,6]
   - 1.93 y[4,7] - 2.5 y[4,8] - 3.9 y[5,0] - 2.18 y[5,1] - 3.64 y[5,2]
   - 0.39 y[5,3] - 2.39 y[5,4] - 2.13 y[5,6] - 1.2 y[5,7] - 4.22 y[5,8]
   - 0.1 y[6,0] - 2.21 y[6,1] - 0.23 y[6,2] - 2.44 y[6,3] - 4.21 y[6,4]
   - 1.64 y[6,5] - 4.41 y[6,7] - 0.6 y[6,8] - 0.77 y[7,0] - 3.86 y[7,1]
   - 3.26 y[7,2] - 3.53 y[7,3] - 2.64 y[7,4] - 2.31 y[7,5] - 4.41 y[7,6]
   - 1.83 y[8,2] - 2.58 y[8,4] - 3.4 y[8,5] - 2.08 y[8,6] + 25 u[0,2]
   + 39 u[0,3] + 77 u[0,4] + 60 u[0,5] + 15 u[0,6] + 85 u[0,7] + 72 u[1,2]
   + 89 u[1,5] + 69 u[1,6] + 23 u[1,7] + 51 u[2,0] + 18 u[2,1] + 42 u[2,3]
   + 11 u[2,4] + 37 u[2,5] + 9 u[2,6] + 22 u[2,7] + 92 u[2,8] + 15 u[3,0]
   + 52 u[3,2] + 97 u[3,4] + 96 u[3,5] + 64 u[3,6] + 56 u[3,7] + 69 u[4,0]
   + 68 u[4,2] + 89 u[4,3] + 91 u[4,5] + 66 u[4,6] + 60 u[4,7] + 90 u[4,8]
   + 25 u[5,0] + 30 u[5,1] + 83 u[5,2] + 57 u[5,3] + 83 u[5,4] + 66 u[5,6]
   + 56 u[5,7] + 59 u[5,8] + 91 u[6,0] + 50 u[6,1] + 75 u[6,2] + 17 u[6,3]
   + 16 u[6,4] + 21 u[6,5] + 65 u[6,7] + 32 u[6,8] + u[7,0] + 58 u[7,1]
   + 58 u[7,2] + 57 u[7,3] + 92 u[7,4] + 75 u[7,5] + u[7,6] + u[8,2]
   + 65 u[8,4] + 71 u[8,5] + 75 u[8,6] <= 284
 mccormick1[0,2]: - u[0,2] + r[0,2] <= 0
 mccormick1[0,3]: - u[0,3] + r[0,3] <= 0
 mccormick1[0,4]: - u[0,4] + r[0,4] <= 0
 mccormick1[0,5]: - u[0,5] + r[0,5] <= 0
 mccormick1[0,6]: - u[0,6] + r[0,6] <= 0
 mccormick1[0,7]: - u[0,7] + r[0,7] <= 0
 mccormick1[1,2]: - u[1,2] + r[1,2] <= 0
 mccormick1[1,5]: - u[1,5] + r[1,5] <= 0
 mccormick1[1,6]: - u[1,6] + r[1,6] <= 0
 mccormick1[1,7]: - u[1,7] + r[1,7] <= 0
 mccormick1[2,0]: - u[2,0] + r[2,0] <= 0
 mccormick1[2,1]: - u[2,1] + r[2,1] <= 0
 mccormick1[2,3]: - u[2,3] + r[2,3] <= 0
 mccormick1[2,4]: - u[2,4] + r[2,4] <= 0
 mccormick1[2,5]: - u[2,5] + r[2,5] <= 0
 mccormick1[2,6]: - u[2,6] + r[2,6] <= 0
 mccormick1[2,7]: - u[2,7] + r[2,7] <= 0
 mccormick1[2,8]: - u[2,8] + r[2,8] <= 0
 mccormick1[3,0]: - u[3,0] + r[3,0] <= 0
 mccormick1[3,2]: - u[3,2] + r[3,2] <= 0
 mccormick1[3,4]: - u[3,4] + r[3,4] <= 0
 mccormick1[3,5]: - u[3,5] + r[3,5] <= 0
 mccormick1[3,6]: - u[3,6] + r[3,6] <= 0
 mccormick1[3,7]: - u[3,7] + r[3,7] <= 0
 mccormick1[4,0]: - u[4,0] + r[4,0] <= 0
 mccormick1[4,2]: - u[4,2] + r[4,2] <= 0
 mccormick1[4,3]: - u[4,3] + r[4,3] <= 0
 mccormick1[4,5]: - u[4,5] + r[4,5] <= 0
 mccormick1[4,6]: - u[4,6] + r[4,6] <= 0
 mccormick1[4,7]: - u[4,7] + r[4,7] <= 0
 mccormick1[4,8]: - u[4,8] + r[4,8] <= 0
 mccormick1[5,0]: - u[5,0] + r[5,0] <= 0
 mccormick1[5,1]: - u[5,1] + r[5,1] <= 0
 mccormick1[5,2]: - u[5,2] + r[5,2] <= 0
 mccormick1[5,3]: - u[5,3] + r[5,3] <= 0
 mccormick1[5,4]: - u[5,4] + r[5,4] <= 0
 mccormick1[5,6]: - u[5,6] + r[5,6] <= 0
 mccormick1[5,7]: - u[5,7] + r[5,7] <= 0
 mccormick1[5,8]: - u[5,8] + r[5,8] <= 0
 mccormick1[6,0]: - u[6,0] + r[6,0] <= 0
 mccormick1[6,1]: - u[6,1] + r[6,1] <= 0
 mccormick1[6,2]: - u[6,2] + r[6,2] <= 0
 mccormick1[6,3]: - u[6,3] + r[6,3] <= 0
 mccormick1[6,4]: - u[6,4] + r[6,4] <= 0
 mccormick1[6,5]: - u[6,5] + r[6,5] <= 0
 mccormick1[6,7]: - u[6,7] + r[6,7] <= 0
 mccormick1[6,8]: - u[6,8] + r[6,8] <= 0
 mccormick1[7,0]: - u[7,0] + r[7,0] <= 0
 mccormick1[7,1]: - u[7,1] + r[7,1] <= 0
 mccormick1[7,2]: - u[7,2] + r[7,2] <= 0
 mccormick1[7,3]: - u[7,3] + r[7,3] <= 0
 mccormick1[7,4]: - u[7,4] + r[7,4] <= 0
 mccormick1[7,5]: - u[7,5] + r[7,5] <= 0
 mccormick1[7,6]: - u[7,6] + r[7,6] <= 0
 mccormick1[8,2]: - u[8,2] + r[8,2] <= 0
 mccormick1[8,4]: - u[8,4] + r[8,4] <= 0
 mccormick1[8,5]: - u[8,5] + r[8,5] <= 0
 mccormick1[8,6]: - u[8,6] + r[8,6] <= 0
 mccormick2[0,2]: - y[0,2] + r[0,2] <= 0
 mccormick2[0,3]: - y[0,3] + r[0,3] <= 0
 mccormick2[0,4]: - y[0,4] + r[0,4] <= 0
 mccormick2[0,5]: - y[0,5] + r[0,5] <= 0
 mccormick2[0,6]: - y[0,6] + r[0,6] <= 0
 mccormick2[0,7]: - y[0,7] + r[0,7] <= 0
 mccormick2[1,2]: - y[1,2] + r[1,2] <= 0
 mccormick2[1,5]: - y[1,5] + r[1,5] <= 0
 mccormick2[1,6]: - y[1,6] + r[1,6] <= 0
 mccormick2[1,7]: - y[1,7] + r[1,7] <= 0
 mccormick2[2,0]: - y[2,0] + r[2,0] <= 0
 mccormick2[2,1]: - y[2,1] + r[2,1] <= 0
 mccormick2[2,3]: - y[2,3] + r[2,3] <= 0
 mccormick2[2,4]: - y[2,4] + r[2,4] <= 0
 mccormick2[2,5]: - y[2,5] + r[2,5] <= 0
 mccormick2[2,6]: - y[2,6] + r[2,6] <= 0
 mccormick2[2,7]: - y[2,7] + r[2,7] <= 0
 mccormick2[2,8]: - y[2,8] + r[2,8] <= 0
 mccormick2[3,0]: - y[3,0] + r[3,0] <= 0
 mccormick2[3,2]: - y[3,2] + r[3,2] <= 0
 mccormick2[3,4]: - y[3,4] + r[3,4] <= 0
 mccormick2[3,5]: - y[3,5] + r[3,5] <= 0
 mccormick2[3,6]: - y[3,6] + r[3,6] <= 0
 mccormick2[3,7]: - y[3,7] + r[3,7] <= 0
 mccormick2[4,0]: - y[4,0] + r[4,0] <= 0
 mccormick2[4,2]: - y[4,2] + r[4,2] <= 0
 mccormick2[4,3]: - y[4,3] + r[4,3] <= 0
 mccormick2[4,5]: - y[4,5] + r[4,5] <= 0
 mccormick2[4,6]: - y[4,6] + r[4,6] <= 0
 mccormick2[4,7]: - y[4,7] + r[4,7] <= 0
 mccormick2[4,8]: - y[4,8] + r[4,8] <= 0
 mccormick2[5,0]: - y[5,0] + r[5,0] <= 0
 mccormick2[5,1]: - y[5,1] + r[5,1] <= 0
 mccormick2[5,2]: - y[5,2] + r[5,2] <= 0
 mccormick2[5,3]: - y[5,3] + r[5,3] <= 0
 mccormick2[5,4]: - y[5,4] + r[5,4] <= 0
 mccormick2[5,6]: - y[5,6] + r[5,6] <= 0
 mccormick2[5,7]: - y[5,7] + r[5,7] <= 0
 mccormick2[5,8]: - y[5,8] + r[5,8] <= 0
 mccormick2[6,0]: - y[6,0] + r[6,0] <= 0
 mccormick2[6,1]: - y[6,1] + r[6,1] <= 0
 mccormick2[6,2]: - y[6,2] + r[6,2] <= 0
 mccormick2[6,3]: - y[6,3] + r[6,3] <= 0
 mccormick2[6,4]: - y[6,4] + r[6,4] <= 0
 mccormick2[6,5]: - y[6,5] + r[6,5] <= 0
 mccormick2[6,7]: - y[6,7] + r[6,7] <= 0
 mccormick2[6,8]: - y[6,8] + r[6,8] <= 0
 mccormick2[7,0]: - y[7,0] + r[7,0] <= 0
 mccormick2[7,1]: - y[7,1] + r[7,1] <= 0
 mccormick2[7,2]: - y[7,2] + r[7,2] <= 0
 mccormick2[7,3]: - y[7,3] + r[7,3] <= 0
 mccormick2[7,4]: - y[7,4] + r[7,4] <= 0
 mccormick2[7,5]: - y[7,5] + r[7,5] <= 0
 mccormick2[7,6]: - y[7,6] + r[7,6] <= 0
 mccormick2[8,2]: - y[8,2] + r[8,2] <= 0
 mccormick2[8,4]: - y[8,4] + r[8,4] <= 0
 mccormick2[8,5]: - y[8,5] + r[8,5] <= 0
 mccormick2[8,6]: - y[8,6] + r[8,6] <= 0
 mccormick3[0,2]: - y[0,2] - u[0,2] + r[0,2] >= -1
 mccormick3[0,3]: - y[0,3] - u[0,3] + r[0,3] >= -1
 mccormick3[0,4]: - y[0,4] - u[0,4] + r[0,4] >= -1
 mccormick3[0,5]: - y[0,5] - u[0,5] + r[0,5] >= -1
 mccormick3[0,6]: - y[0,6] - u[0,6] + r[0,6] >= -1
 mccormick3[0,7]: - y[0,7] - u[0,7] + r[0,7] >= -1
 mccormick3[1,2]: - y[1,2] - u[1,2] + r[1,2] >= -1
 mccormick3[1,5]: - y[1,5] - u[1,5] + r[1,5] >= -1
 mccormick3[1,6]: - y[1,6] - u[1,6] + r[1,6] >= -1
 mccormick3[1,7]: - y[1,7] - u[1,7] + r[1,7] >= -1
 mccormick3[2,0]: - y[2,0] - u[2,0] + r[2,0] >= -1
 mccormick3[2,1]: - y[2,1] - u[2,1] + r[2,1] >= -1
 mccormick3[2,3]: - y[2,3] - u[2,3] + r[2,3] >= -1
 mccormick3[2,4]: - y[2,4] - u[2,4] + r[2,4] >= -1
 mccormick3[2,5]: - y[2,5] - u[2,5] + r[2,5] >= -1
 mccormick3[2,6]: - y[2,6] - u[2,6] + r[2,6] >= -1
 mccormick3[2,7]: - y[2,7] - u[2,7] + r[2,7] >= -1
 mccormick3[2,8]: - y[2,8] - u[2,8] + r[2,8] >= -1
 mccormick3[3,0]: - y[3,0] - u[3,0] + r[3,0] >= -1
 mccormick3[3,2]: - y[3,2] - u[3,2] + r[3,2] >= -1
 mccormick3[3,4]: - y[3,4] - u[3,4] + r[3,4] >= -1
 mccormick3[3,5]: - y[3,5] - u[3,5] + r[3,5] >= -1
 mccormick3[3,6]: - y[3,6] - u[3,6] + r[3,6] >= -1
 mccormick3[3,7]: - y[3,7] - u[3,7] + r[3,7] >= -1
 mccormick3[4,0]: - y[4,0] - u[4,0] + r[4,0] >= -1
 mccormick3[4,2]: - y[4,2] - u[4,2] + r[4,2] >= -1
 mccormick3[4,3]: - y[4,3] - u[4,3] + r[4,3] >= -1
 mccormick3[4,5]: - y[4,5] - u[4,5] + r[4,5] >= -1
 mccormick3[4,6]: - y[4,6] - u[4,6] + r[4,6] >= -1
 mccormick3[4,7]: - y[4,7] - u[4,7] + r[4,7] >= -1
 mccormick3[4,8]: - y[4,8] - u[4,8] + r[4,8] >= -1
 mccormick3[5,0]: - y[5,0] - u[5,0] + r[5,0] >= -1
 mccormick3[5,1]: - y[5,1] - u[5,1] + r[5,1] >= -1
 mccormick3[5,2]: - y[5,2] - u[5,2] + r[5,2] >= -1
 mccormick3[5,3]: - y[5,3] - u[5,3] + r[5,3] >= -1
 mccormick3[5,4]: - y[5,4] - u[5,4] + r[5,4] >= -1
 mccormick3[5,6]: - y[5,6] - u[5,6] + r[5,6] >= -1
 mccormick3[5,7]: - y[5,7] - u[5,7] + r[5,7] >= -1
 mccormick3[5,8]: - y[5,8] - u[5,8] + r[5,8] >= -1
 mccormick3[6,0]: - y[6,0] - u[6,0] + r[6,0] >= -1
 mccormick3[6,1]: - y[6,1] - u[6,1] + r[6,1] >= -1
 mccormick3[6,2]: - y[6,2] - u[6,2] + r[6,2] >= -1
 mccormick3[6,3]: - y[6,3] - u[6,3] + r[6,3] >= -1
 mccormick3[6,4]: - y[6,4] - u[6,4] + r[6,4] >= -1
 mccormick3[6,5]: - y[6,5] - u[6,5] + r[6,5] >= -1
 mccormick3[6,7]: - y[6,7] - u[6,7] + r[6,7] >= -1
 mccormick3[6,8]: - y[6,8] - u[6,8] + r[6,8] >= -1
 mccormick3[7,0]: - y[7,0] - u[7,0] + r[7,0] >= -1
 mccormick3[7,1]: - y[7,1] - u[7,1] + r[7,1] >= -1
 mccormick3[7,2]: - y[7,2] - u[7,2] + r[7,2] >= -1
 mccormick3[7,3]: - y[7,3] - u[7,3] + r[7,3] >= -1
 mccormick3[7,4]: - y[7,4] - u[7,4] + r[7,4] >= -1
 mccormick3[7,5]: - y[7,5] - u[7,5] + r[7,5] >= -1
 mccormick3[7,6]: - y[7,6] - u[7,6] + r[7,6] >= -1
 mccormick3[8,2]: - y[8,2] - u[8,2] + r[8,2] >= -1
 mccormick3[8,4]: - y[8,4] - u[8,4] + r[8,4] >= -1
 mccormick3[8,5]: - y[8,5] - u[8,5] + r[8,5] >= -1
 mccormick3[8,6]: - y[8,6] - u[8,6] + r[8,6] >= -1
Bounds
Binaries
 y[0,2] y[0,3] y[0,4] y[0,5] y[0,6] y[0,7] y[1,2] y[1,5] y[1,6] y[1,7]
 y[2,0] y[2,1] y[2,3] y[2,4] y[2,5] y[2,6] y[2,7] y[2,8] y[3,0] y[3,2]
 y[3,4] y[3,5] y[3,6] y[3,7] y[4,0] y[4,2] y[4,3] y[4,5] y[4,6] y[4,7]
 y[4,8] y[5,0] y[5,1] y[5,2] y[5,3] y[5,4] y[5,6] y[5,7] y[5,8] y[6,0]
 y[6,1] y[6,2] y[6,3] y[6,4] y[6,5] y[6,7] y[6,8] y[7,0] y[7,1] y[7,2]
 y[7,3] y[7,4] y[7,5] y[7,6] y[8,2] y[8,4] y[8,5] y[8,6] u[0,2] u[0,3]
 u[0,4] u[0,5] u[0,6] u[0,7] u[1,2] u[1,5] u[1,6] u[1,7] u[2,0] u[2,1]
 u[2,3] u[2,4] u[2,5] u[2,6] u[2,7] u[2,8] u[3,0] u[3,2] u[3,4] u[3,5]
 u[3,6] u[3,7] u[4,0] u[4,2] u[4,3] u[4,5] u[4,6] u[4,7] u[4,8] u[5,0]
 u[5,1] u[5,2] u[5,3] u[5,4] u[5,6] u[5,7] u[5,8] u[6,0] u[6,1] u[6,2]
 u[6,3] u[6,4] u[6,5] u[6,7] u[6,8] u[7,0] u[7,1] u[7,2] u[7,3] u[7,4]
 u[7,5] u[7,6] u[8,2] u[8,4] u[8,5] u[8,6] r[0,2] r[0,3] r[0,4] r[0,5]
 r[0,6] r[0,7] r[1,2] r[1,5] r[1,6] r[1,7] r[2,0] r[2,1] r[2,3] r[2,4]
 r[2,5] r[2,6] r[2,7] r[2,8] r[3,0] r[3,2] r[3,4] r[3,5] r[3,6] r[3,7]
 r[4,0] r[4,2] r[4,3] r[4,5] r[4,6] r[4,7] r[4,8] r[5,0] r[5,1] r[5,2]
 r[5,3] r[5,4] r[5,6] r[5,7] r[5,8] r[6,0] r[6,1] r[6,2] r[6,3] r[6,4]
 r[6,5] r[6,7] r[6,8] r[7,0] r[7,1] r[7,2] r[7,3] r[7,4] r[7,5] r[7,6]
 r[8,2] r[8,4] r[8,5] r[8,6]
End
